(declare-fun a () Int)
(declare-fun b () Int)
(declare-fun c () Int)
(declare-fun d () Int)
(assert (>= b 0))
(assert (<= b 1))
(assert (>= c 0))
(assert (<= c 1))
(assert (>= d 0))
(assert (<= d 1))
(assert (<= d c a))
(assert (<= (+ b c) 1))
(check-sat)
